(declare-const X String)
; \d{3}-\d{6}
(assert (not (str.in.re X (re.++ ((_ re.loop 3 3) (re.range "0" "9")) (str.to.re "-") ((_ re.loop 6 6) (re.range "0" "9")) (str.to.re "\x0a")))))
; Subject\x3A\swww\x2Esearchwords\x2Ecom
(assert (str.in.re X (re.++ (str.to.re "Subject:") (re.union (str.to.re " ") (str.to.re "\x09") (str.to.re "\x0a") (str.to.re "\x0c") (str.to.re "\x0d")) (str.to.re "www.searchwords.com\x0a"))))
; (^\d*\.?\d*[0-9]+\d*$)|(^[0-9]+\d*\.\d*$)
(assert (not (str.in.re X (re.union (re.++ (re.* (re.range "0" "9")) (re.opt (str.to.re ".")) (re.* (re.range "0" "9")) (re.+ (re.range "0" "9")) (re.* (re.range "0" "9"))) (re.++ (str.to.re "\x0a") (re.+ (re.range "0" "9")) (re.* (re.range "0" "9")) (str.to.re ".") (re.* (re.range "0" "9")))))))
(check-sat)
